c Maximum weighted independent set instances generated from exactcolors.
c scalef: 21474836 .
c An independent set of value > 21474836 defines an improving stable sets for coloring.
p edge 100 166
e 1 2
e 1 4
e 1 12
e 1 13
e 2 4
e 2 33
e 2 34
e 3 7
e 3 8
e 3 11
e 3 32
e 4 5
e 5 6
e 5 48
e 5 49
e 6 7
e 6 9
e 6 10
e 7 92
e 8 9
e 8 27
e 8 62
e 9 74
e 10 68
e 10 75
e 10 76
e 11 13
e 11 18
e 11 20
e 12 23
e 12 59
e 13 15
e 13 16
e 14 15
e 14 16
e 14 60
e 14 61
e 15 35
e 15 44
e 16 29
e 17 18
e 17 19
e 17 24
e 17 25
e 18 19
e 19 21
e 19 22
e 20 21
e 20 22
e 21 22
e 23 24
e 23 25
e 24 99
e 24 100
e 25 51
e 25 52
e 26 27
e 26 28
e 26 70
e 26 71
e 27 28
e 28 64
e 28 77
e 29 30
e 29 31
e 30 31
e 30 36
e 30 37
e 31 45
e 31 46
e 32 33
e 32 34
e 33 34
e 35 37
e 35 39
e 35 40
e 36 37
e 36 89
e 38 39
e 38 40
e 38 42
e 38 43
e 39 40
e 41 43
e 41 54
e 41 55
e 41 56
e 42 43
e 42 57
e 42 58
e 44 45
e 44 46
e 45 46
e 47 48
e 47 49
e 47 93
e 47 94
e 48 49
e 50 65
e 50 81
e 50 82
e 50 98
e 51 52
e 51 66
e 51 67
e 52 80
e 53 54
e 53 55
e 53 90
e 53 91
e 54 55
e 56 58
e 56 95
e 57 58
e 57 96
e 57 97
e 59 60
e 59 61
e 60 61
e 62 64
e 62 84
e 62 85
e 63 64
e 63 78
e 63 79
e 63 83
e 65 66
e 65 67
e 66 87
e 66 88
e 67 86
e 68 69
e 68 70
e 69 70
e 69 72
e 69 73
e 71 72
e 71 73
e 72 73
e 74 75
e 74 76
e 75 76
e 77 78
e 77 79
e 78 79
e 80 81
e 80 82
e 81 82
e 83 84
e 83 85
e 84 85
e 86 87
e 86 88
e 87 88
e 89 90
e 89 91
e 90 91
e 92 93
e 92 94
e 93 94
e 95 96
e 95 97
e 96 97
e 98 99
e 98 100
e 99 100
n 1 650752
n 2 650752
n 3 650752
n 4 650752
n 5 650752
n 6 650752
n 7 650752
n 8 650752
n 9 650752
n 10 650752
n 11 650752
n 12 650752
n 13 650752
n 14 650752
n 15 650752
n 16 650752
n 17 650752
n 18 650752
n 19 650752
n 20 650752
n 21 650752
n 22 650752
n 23 650752
n 24 650752
n 25 650752
n 26 650752
n 27 650752
n 28 650752
n 29 650752
n 30 650752
n 31 650752
n 32 650752
n 33 650752
n 34 650752
n 35 650752
n 36 650752
n 37 650752
n 38 650752
n 39 650752
n 40 650752
n 41 650752
n 42 650752
n 43 650752
n 44 650752
n 45 650752
n 46 650752
n 47 650752
n 48 650752
n 49 650752
n 50 650752
n 51 650752
n 52 650752
n 53 650752
n 54 650752
n 55 650752
n 56 650752
n 57 650752
n 58 650752
n 59 650752
n 60 650752
n 61 650752
n 62 650752
n 63 650752
n 64 650752
n 65 650752
n 66 650752
n 67 650752
n 68 650752
n 69 650752
n 70 650752
n 71 650752
n 72 650752
n 73 650752
n 74 650752
n 75 650752
n 76 650752
n 77 650752
n 78 650752
n 79 650752
n 80 650752
n 81 650752
n 82 650752
n 83 650752
n 84 650752
n 85 650752
n 86 650752
n 87 650752
n 88 650752
n 89 650752
n 90 650752
n 91 650752
n 92 650752
n 93 650752
n 94 650752
n 95 650752
n 96 650752
n 97 650752
n 98 650752
n 99 650752
n 100 650752
